p edge 64 512
e 1 51
e 1 10
e 1 30
e 1 47
e 1 64
e 1 48
e 1 40
e 1 15
e 1 9
e 1 22
e 1 18
e 1 26
e 1 59
e 1 24
e 1 55
e 1 13
e 2 21
e 2 57
e 2 11
e 2 54
e 2 26
e 2 42
e 2 44
e 2 36
e 2 20
e 2 62
e 2 64
e 2 60
e 2 55
e 2 41
e 2 3
e 2 58
e 2 48
e 2 27
e 2 56
e 2 17
e 2 29
e 2 30
e 2 63
e 2 13
e 3 35
e 3 49
e 3 14
e 3 6
e 3 31
e 3 16
e 3 45
e 3 17
e 3 60
e 3 44
e 3 59
e 3 64
e 3 38
e 3 11
e 3 57
e 3 7
e 3 36
e 3 8
e 3 52
e 4 39
e 4 18
e 4 13
e 4 5
e 4 49
e 4 33
e 4 8
e 4 20
e 4 31
e 4 10
e 4 24
e 4 52
e 4 41
e 4 64
e 4 9
e 5 23
e 5 28
e 5 38
e 5 55
e 5 26
e 5 25
e 5 21
e 5 36
e 5 16
e 5 31
e 5 52
e 5 43
e 5 46
e 5 11
e 5 13
e 5 64
e 5 15
e 5 49
e 5 10
e 5 57
e 5 6
e 5 34
e 6 14
e 6 52
e 6 55
e 6 23
e 6 57
e 6 41
e 6 62
e 6 51
e 6 59
e 6 43
e 6 12
e 6 29
e 6 33
e 6 47
e 6 49
e 6 17
e 6 34
e 6 28
e 6 46
e 6 61
e 6 31
e 7 17
e 7 29
e 7 57
e 7 45
e 7 15
e 7 16
e 8 54
e 8 59
e 8 17
e 8 22
e 8 48
e 8 13
e 8 42
e 8 20
e 8 10
e 9 40
e 9 50
e 9 53
e 9 36
e 9 18
e 9 13
e 9 60
e 9 11
e 9 16
e 9 45
e 9 23
e 9 41
e 9 39
e 9 19
e 9 29
e 9 46
e 10 19
e 10 32
e 10 63
e 10 61
e 10 24
e 10 52
e 10 60
e 10 27
e 10 57
e 10 48
e 10 35
e 11 47
e 11 54
e 11 25
e 11 36
e 11 64
e 11 53
e 11 51
e 11 43
e 11 48
e 11 12
e 11 44
e 11 28
e 12 37
e 12 40
e 12 27
e 12 42
e 12 43
e 12 44
e 12 60
e 12 55
e 12 33
e 12 32
e 12 41
e 13 23
e 13 21
e 13 63
e 13 46
e 13 22
e 13 42
e 13 55
e 13 36
e 13 64
e 13 44
e 13 14
e 14 44
e 14 59
e 14 49
e 14 45
e 14 61
e 14 51
e 14 26
e 14 46
e 14 25
e 14 31
e 14 23
e 14 62
e 15 18
e 15 33
e 15 26
e 15 64
e 15 58
e 15 48
e 15 47
e 15 29
e 15 23
e 15 21
e 15 45
e 15 54
e 15 61
e 16 22
e 16 26
e 16 20
e 16 27
e 16 31
e 16 56
e 16 18
e 16 41
e 16 62
e 16 51
e 16 19
e 16 42
e 16 45
e 17 26
e 17 43
e 17 36
e 17 47
e 17 45
e 17 52
e 17 62
e 17 60
e 17 48
e 17 23
e 17 19
e 17 30
e 17 31
e 18 34
e 18 21
e 18 38
e 18 56
e 18 49
e 18 57
e 18 60
e 18 63
e 18 26
e 18 44
e 18 37
e 18 27
e 19 21
e 19 42
e 19 63
e 19 31
e 19 41
e 19 39
e 19 24
e 19 35
e 19 34
e 19 46
e 20 40
e 20 63
e 20 36
e 20 49
e 20 42
e 20 27
e 20 56
e 20 51
e 20 60
e 20 22
e 20 24
e 20 53
e 21 33
e 21 22
e 21 54
e 21 28
e 21 29
e 21 49
e 21 30
e 21 35
e 21 63
e 21 42
e 21 57
e 21 44
e 22 44
e 22 51
e 22 49
e 22 47
e 22 37
e 22 46
e 22 34
e 22 54
e 22 60
e 23 27
e 23 39
e 23 40
e 23 32
e 23 38
e 23 37
e 23 41
e 23 34
e 23 46
e 23 25
e 23 60
e 23 29
e 23 64
e 23 57
e 23 45
e 23 48
e 24 28
e 24 37
e 24 63
e 24 33
e 24 44
e 24 48
e 24 31
e 24 47
e 24 53
e 24 35
e 24 49
e 24 30
e 25 27
e 25 44
e 25 39
e 25 48
e 25 52
e 25 29
e 25 64
e 25 33
e 25 56
e 26 27
e 26 48
e 26 58
e 26 64
e 26 37
e 26 30
e 26 56
e 26 29
e 26 33
e 27 39
e 27 43
e 27 48
e 27 62
e 27 60
e 27 32
e 27 55
e 27 46
e 27 29
e 27 47
e 27 61
e 27 41
e 27 59
e 27 52
e 28 56
e 28 32
e 28 46
e 28 30
e 28 42
e 28 43
e 28 35
e 28 29
e 28 41
e 28 62
e 28 51
e 28 38
e 29 42
e 29 31
e 29 57
e 29 37
e 29 43
e 29 47
e 30 38
e 30 56
e 30 61
e 30 64
e 30 44
e 30 54
e 30 43
e 30 58
e 31 56
e 31 33
e 31 51
e 31 61
e 31 54
e 31 49
e 31 43
e 31 53
e 32 41
e 32 49
e 32 54
e 32 59
e 32 46
e 32 36
e 32 39
e 33 45
e 33 48
e 33 50
e 33 43
e 33 64
e 34 41
e 34 55
e 34 35
e 34 42
e 34 60
e 34 59
e 34 37
e 35 42
e 35 63
e 35 50
e 35 64
e 36 63
e 36 60
e 36 47
e 36 54
e 36 40
e 36 57
e 36 38
e 36 49
e 36 51
e 36 44
e 36 45
e 36 52
e 36 64
e 37 54
e 37 40
e 37 51
e 37 63
e 37 41
e 37 39
e 38 53
e 38 41
e 38 39
e 38 60
e 38 43
e 38 64
e 39 55
e 39 49
e 39 60
e 39 63
e 39 58
e 39 52
e 39 53
e 40 59
e 40 56
e 40 63
e 40 52
e 40 55
e 40 42
e 41 51
e 41 62
e 41 60
e 41 43
e 41 55
e 42 62
e 42 61
e 42 55
e 42 50
e 43 55
e 43 59
e 43 57
e 43 63
e 43 64
e 43 49
e 44 50
e 44 48
e 45 56
e 46 59
e 46 49
e 46 64
e 46 57
e 47 56
e 47 55
e 47 51
e 48 56
e 48 60
e 48 51
e 49 62
e 49 50
e 49 54
e 49 64
e 50 58
e 50 61
e 50 52
e 51 55
e 51 61
e 51 62
e 51 64
e 53 54
e 53 59
e 53 57
e 54 60
e 54 56
e 54 55
e 54 59
e 54 61
e 55 60
e 56 63
e 56 57
e 57 61
e 57 63
e 58 59
e 59 62
e 60 64
e 60 61
e 61 62
e 62 63
